Tank loading/problem4.sol
# Solution for model problem4
# Objective value = 4000
Z 4000
x_gasoline-grade-80_1 0
x_gasoline-grade-80_3 0
x_gasoline-grade-80_4 0
x_gasoline-grade-80_5 0
x_gasoline-grade-80_6 1
x_gasoline-grade-80_8 0
x_gasoline-grade-80_9 0
x_gasoline-grade-90_1 0
x_gasoline-grade-90_3 0
x_gasoline-grade-90_4 0
x_gasoline-grade-90_5 0
x_gasoline-grade-90_6 0
x_gasoline-grade-90_8 1
x_gasoline-grade-90_9 0
x_gasoline-grade-93_1 0
x_gasoline-grade-93_3 1
x_gasoline-grade-93_4 1
x_gasoline-grade-93_5 0
x_gasoline-grade-93_6 0
x_gasoline-grade-93_8 0
x_gasoline-grade-93_9 0
x_Diesel_1 1
x_Diesel_3 0
x_Diesel_4 0
x_Diesel_5 0
x_Diesel_6 0
x_Diesel_8 0
x_Diesel_9 0
x_Engine-Oil_1 0
x_Engine-Oil_3 0
x_Engine-Oil_4 0
x_Engine-Oil_5 0
x_Engine-Oil_6 0
x_Engine-Oil_8 0
x_Engine-Oil_9 1
